
%    +---------------+
% 10 | | | | | | | | |
% 9  | | | | | | | | |
% 8  | | | | | | | | |
% 7  | | | | | | | | |
% 6  | | | | |2| | | |
% 5  | |1|1| | |5| | |
% 4  | |1|1| | | | | |
% 3  | | | | | | |6| |
% 2  | | | | | |3|4| |
% 1  | | | | | | | | |
%    +---------------+
n=8;
m=10;
h=2;
%maxT=45;
boxNumber=6;
boxSideLen = [2, 1, 1, 1, 1, 1];
boxStartX  = [2, 5, 6, 7, 6, 7];
boxStartY  = [4, 6, 2, 2, 5, 3];
